unsat
(:max-memory         18.05
 :memory             17.95
 :nlsat-conflicts    7
 :nlsat-decisions    2
 :nlsat-propagations 25
 :nlsat-stages       6
 :num-allocs         29171
 :rlimit-count       3124
 :time               0.00
 :total-time         0.02)
